Route #1: 5 6 15 7 8 16 28 36 27 23 22 39 40 44 50 55 60 51 41 37 29 30 24 18 17 1 9 2 19 10 11 25 31 46 54 53 42 45 52 62 61 69 77 78 70 63 64 73 74 71 56 47 32 33 34 26 21 20 12 3 13 4 14 35 43 38 49 48 57 65 58 59 66 75 83 84 95 89 94 88 79 82 87 93 100 92 99 91 86 76 68 67 72 80 81 85 98 97 96 90
Cost 47545
